Maximize
  0.00150774058087148 Z_216_1_0 + 0.00139792395235029 Z_216_1_1
   + 0.6116566806245907 Z_216_1_2 + 0.00113963013131199 Z_216_1_3
   + 0.2842980247108757 Z_216_1_4
Subject To
 constraint1_2161: Z_216_1_0 + Z_216_1_1 + Z_216_1_2 + Z_216_1_3
   + Z_216_1_4 <= 1
 constraint2_2160: Z_216_1_0 <= 1
 constraint2_2161: Z_216_1_1 <= 1
 constraint2_2162: Z_216_1_2 <= 1
 constraint2_2163: Z_216_1_3 <= 1
Bounds
Binaries
 Z_216_1_0 Z_216_1_1 Z_216_1_2 Z_216_1_3 Z_216_1_4
End
